c *********************************
c * Circuit generated by BenCGen
c *
c * CarrySkipAdder_20_20_20_InOut_G4T
c *
c * Ports with 1 gate(s): 7
c * Ports with 2 gate(s): 111
c * Ports with 4 gate(s): 5
c * Total gates: 123
c *********************************
p cnf 163 412
1 63 0
-1 -63 0
1 -62 0
63 -62 0
-1 -63 62 0
1 21 -66 0
-1 21 66 0
1 -21 66 0
-1 -21 -66 0
66 62 -41 0
-66 62 41 0
66 -62 41 0
-66 -62 -41 0
62 -67 0
66 -67 0
-62 -66 67 0
21 -68 0
1 -68 0
-21 -1 68 0
-67 65 0
-68 65 0
67 68 -65 0
2 22 -70 0
-2 22 70 0
2 -22 70 0
-2 -22 -70 0
70 65 -42 0
-70 65 42 0
70 -65 42 0
-70 -65 -42 0
65 -71 0
70 -71 0
-65 -70 71 0
22 -72 0
2 -72 0
-22 -2 72 0
-71 69 0
-72 69 0
71 72 -69 0
3 23 -74 0
-3 23 74 0
3 -23 74 0
-3 -23 -74 0
74 69 -43 0
-74 69 43 0
74 -69 43 0
-74 -69 -43 0
69 -75 0
74 -75 0
-69 -74 75 0
23 -76 0
3 -76 0
-23 -3 76 0
-75 73 0
-76 73 0
75 76 -73 0
4 24 -77 0
-4 24 77 0
4 -24 77 0
-4 -24 -77 0
77 73 -44 0
-77 73 44 0
77 -73 44 0
-77 -73 -44 0
73 -78 0
77 -78 0
-73 -77 78 0
24 -79 0
4 -79 0
-24 -4 79 0
-78 64 0
-79 64 0
78 79 -64 0
66 -80 0
70 -80 0
74 -80 0
77 -80 0
-66 -70 -74 -77 80 0
79 -81 0
-79 81 0
62 -82 0
80 -82 0
-62 -80 82 0
-82 83 0
-64 83 0
82 64 -83 0
5 25 -86 0
-5 25 86 0
5 -25 86 0
-5 -25 -86 0
86 83 -45 0
-86 83 45 0
86 -83 45 0
-86 -83 -45 0
83 -87 0
86 -87 0
-83 -86 87 0
25 -88 0
5 -88 0
-25 -5 88 0
-87 85 0
-88 85 0
87 88 -85 0
6 26 -90 0
-6 26 90 0
6 -26 90 0
-6 -26 -90 0
90 85 -46 0
-90 85 46 0
90 -85 46 0
-90 -85 -46 0
85 -91 0
90 -91 0
-85 -90 91 0
26 -92 0
6 -92 0
-26 -6 92 0
-91 89 0
-92 89 0
91 92 -89 0
7 27 -94 0
-7 27 94 0
7 -27 94 0
-7 -27 -94 0
94 89 -47 0
-94 89 47 0
94 -89 47 0
-94 -89 -47 0
89 -95 0
94 -95 0
-89 -94 95 0
27 -96 0
7 -96 0
-27 -7 96 0
-95 93 0
-96 93 0
95 96 -93 0
8 28 -97 0
-8 28 97 0
8 -28 97 0
-8 -28 -97 0
97 93 -48 0
-97 93 48 0
97 -93 48 0
-97 -93 -48 0
93 -98 0
97 -98 0
-93 -97 98 0
28 -99 0
8 -99 0
-28 -8 99 0
-98 84 0
-99 84 0
98 99 -84 0
86 -100 0
90 -100 0
94 -100 0
97 -100 0
-86 -90 -94 -97 100 0
99 -101 0
-99 101 0
83 -102 0
100 -102 0
-83 -100 102 0
-102 103 0
-84 103 0
102 84 -103 0
9 29 -106 0
-9 29 106 0
9 -29 106 0
-9 -29 -106 0
106 103 -49 0
-106 103 49 0
106 -103 49 0
-106 -103 -49 0
103 -107 0
106 -107 0
-103 -106 107 0
29 -108 0
9 -108 0
-29 -9 108 0
-107 105 0
-108 105 0
107 108 -105 0
10 30 -110 0
-10 30 110 0
10 -30 110 0
-10 -30 -110 0
110 105 -50 0
-110 105 50 0
110 -105 50 0
-110 -105 -50 0
105 -111 0
110 -111 0
-105 -110 111 0
30 -112 0
10 -112 0
-30 -10 112 0
-111 109 0
-112 109 0
111 112 -109 0
11 31 -114 0
-11 31 114 0
11 -31 114 0
-11 -31 -114 0
114 109 -51 0
-114 109 51 0
114 -109 51 0
-114 -109 -51 0
109 -115 0
114 -115 0
-109 -114 115 0
31 -116 0
11 -116 0
-31 -11 116 0
-115 113 0
-116 113 0
115 116 -113 0
12 32 -117 0
-12 32 117 0
12 -32 117 0
-12 -32 -117 0
117 113 -52 0
-117 113 52 0
117 -113 52 0
-117 -113 -52 0
113 -118 0
117 -118 0
-113 -117 118 0
32 -119 0
12 -119 0
-32 -12 119 0
-118 104 0
-119 104 0
118 119 -104 0
106 -120 0
110 -120 0
114 -120 0
117 -120 0
-106 -110 -114 -117 120 0
119 -121 0
-119 121 0
103 -122 0
120 -122 0
-103 -120 122 0
-122 123 0
-104 123 0
122 104 -123 0
13 33 -126 0
-13 33 126 0
13 -33 126 0
-13 -33 -126 0
126 123 -53 0
-126 123 53 0
126 -123 53 0
-126 -123 -53 0
123 -127 0
126 -127 0
-123 -126 127 0
33 -128 0
13 -128 0
-33 -13 128 0
-127 125 0
-128 125 0
127 128 -125 0
14 34 -130 0
-14 34 130 0
14 -34 130 0
-14 -34 -130 0
130 125 -54 0
-130 125 54 0
130 -125 54 0
-130 -125 -54 0
125 -131 0
130 -131 0
-125 -130 131 0
34 -132 0
14 -132 0
-34 -14 132 0
-131 129 0
-132 129 0
131 132 -129 0
15 35 -134 0
-15 35 134 0
15 -35 134 0
-15 -35 -134 0
134 129 -55 0
-134 129 55 0
134 -129 55 0
-134 -129 -55 0
129 -135 0
134 -135 0
-129 -134 135 0
35 -136 0
15 -136 0
-35 -15 136 0
-135 133 0
-136 133 0
135 136 -133 0
16 36 -137 0
-16 36 137 0
16 -36 137 0
-16 -36 -137 0
137 133 -56 0
-137 133 56 0
137 -133 56 0
-137 -133 -56 0
133 -138 0
137 -138 0
-133 -137 138 0
36 -139 0
16 -139 0
-36 -16 139 0
-138 124 0
-139 124 0
138 139 -124 0
126 -140 0
130 -140 0
134 -140 0
137 -140 0
-126 -130 -134 -137 140 0
139 -141 0
-139 141 0
123 -142 0
140 -142 0
-123 -140 142 0
-142 143 0
-124 143 0
142 124 -143 0
17 37 -146 0
-17 37 146 0
17 -37 146 0
-17 -37 -146 0
146 143 -57 0
-146 143 57 0
146 -143 57 0
-146 -143 -57 0
143 -147 0
146 -147 0
-143 -146 147 0
37 -148 0
17 -148 0
-37 -17 148 0
-147 145 0
-148 145 0
147 148 -145 0
18 38 -150 0
-18 38 150 0
18 -38 150 0
-18 -38 -150 0
150 145 -58 0
-150 145 58 0
150 -145 58 0
-150 -145 -58 0
145 -151 0
150 -151 0
-145 -150 151 0
38 -152 0
18 -152 0
-38 -18 152 0
-151 149 0
-152 149 0
151 152 -149 0
19 39 -154 0
-19 39 154 0
19 -39 154 0
-19 -39 -154 0
154 149 -59 0
-154 149 59 0
154 -149 59 0
-154 -149 -59 0
149 -155 0
154 -155 0
-149 -154 155 0
39 -156 0
19 -156 0
-39 -19 156 0
-155 153 0
-156 153 0
155 156 -153 0
20 40 -157 0
-20 40 157 0
20 -40 157 0
-20 -40 -157 0
157 153 -60 0
-157 153 60 0
157 -153 60 0
-157 -153 -60 0
153 -158 0
157 -158 0
-153 -157 158 0
40 -159 0
20 -159 0
-40 -20 159 0
-158 144 0
-159 144 0
158 159 -144 0
146 -160 0
150 -160 0
154 -160 0
157 -160 0
-146 -150 -154 -157 160 0
159 -161 0
-159 161 0
143 -162 0
160 -162 0
-143 -160 162 0
-162 163 0
-144 163 0
162 144 -163 0
163 -61 0
-163 61 0
